Minimize
  - 26 y_0 - 19 y_1 - 18 y_2 - 19 y_3 - 22 y_4 - 23 y_5 - 13 y_6 - 28 y_7
   - 17 y_8 - 30 y_9 - 14 y_10 - 17 y_11 - 9 y_12 - 25 y_13 - 28 y_14
   - 19 y_15 - 19 y_16 - 29 y_17 - 24 y_18 - 22 y_19 - 20 y_20 - 27 y_21
   - 15 y_22 - 21 y_23 - 15 y_24 - 28 y_25 - 8 y_26 - 32 y_27 - 4 y_29
   - 14 y_30 - 28 y_31 - 21 y_32 - 19 y_33 - 23 y_34 - 29 y_35 - 20 y_36
   - 26 y_37 - 24 y_38 - 14 y_39 - 19 y_40 - 27 y_41 - 20 y_42 - 14 y_43
   - 19 y_44 - 35 y_45 - 29 y_46 - 12 y_47 - 13 y_48 - 15 y_49 + 85 x_0_3
   + 81 x_0_10 + 67 x_0_11 + 51 x_0_16 + 68 x_0_26 + 91 x_0_34 + 88 x_0_44
   + 72 x_0_45 + 29 x_0_46 + 82 x_0_49 + 47 x_1_5 + 64 x_1_8 + 28 x_1_11
   + 95 x_1_17 + 56 x_1_18 + 8 x_1_22 + 61 x_1_24 + 87 x_1_25 + 49 x_1_26
   + 95 x_1_27 + 38 x_1_28 + 31 x_1_29 + 75 x_1_33 + 49 x_1_36 + 88 x_1_37
   + 89 x_1_41 + 68 x_1_42 + 66 x_1_43 + 74 x_1_44 + 64 x_1_46 + 56 x_1_49
   + 70 x_2_4 + 5 x_2_16 + 89 x_2_17 + 43 x_2_26 + 22 x_2_30 + 64 x_2_43
   + 68 x_2_44 + 46 x_2_49 + 39 x_3_4 + 16 x_3_5 + 86 x_3_13 + 81 x_3_19
   + 68 x_3_21 + 44 x_3_25 + 76 x_3_36 + 84 x_3_38 + 104 x_3_45 + 36 x_3_47
   + 55 x_4_5 + 58 x_4_8 + 56 x_4_9 + 54 x_4_12 + 73 x_4_15 + 21 x_4_17
   + 71 x_4_22 + 40 x_4_23 + 55 x_4_24 + 30 x_4_26 + 94 x_4_31 + 24 x_4_34
   + 78 x_4_36 + 15 x_4_42 + 62 x_4_48 + 99 x_5_7 + 101 x_5_14 + 82 x_5_15
   + 85 x_5_19 + 76 x_5_24 + 59 x_5_25 + 115 x_5_45 + 100 x_5_46
   + 32 x_5_48 + 39 x_6_12 + 62 x_6_14 + 67 x_6_18 + 39 x_6_23 + 24 x_6_33
   + 38 x_6_37 + 57 x_6_38 + 27 x_6_41 + 21 x_6_42 + 20 x_6_49 + 66 x_7_13
   + 24 x_7_14 + 53 x_7_18 + 81 x_7_22 + 10 x_7_27 + 44 x_7_32 + 20 x_7_37
   + 84 x_7_39 + 57 x_7_46 + 83 x_7_48 + 72 x_7_49 + 56 x_8_10 + 67 x_8_16
   + 33 x_8_18 + 37 x_8_19 + 34 x_8_20 + 42 x_8_26 + 64 x_8_30 + 44 x_8_32
   + 28 x_8_33 + 29 x_8_36 + 15 x_8_38 + 62 x_8_39 + 59 x_8_41 + 45 x_8_44
   + 40 x_8_47 + 69 x_9_10 + 79 x_9_13 + 56 x_9_15 + 98 x_9_16 + 66 x_9_18
   + 70 x_9_20 + 86 x_9_30 + 37 x_9_32 + 50 x_9_35 + 64 x_9_36 + 40 x_9_38
   + 86 x_9_39 + 44 x_9_44 + 37 x_9_45 + 88 x_9_48 + 34 x_10_11
   + 80 x_10_13 + 45 x_10_17 + 74 x_10_19 + 49 x_10_22 + 20 x_10_23
   + 85 x_10_31 + 36 x_10_32 + 82 x_10_35 + 68 x_10_36 + 58 x_10_37
   + 2 x_10_49 + 17 x_11_12 + 88 x_11_14 + 66 x_11_15 + 67 x_11_19
   + 64 x_11_24 + 66 x_11_25 + 33 x_11_28 + 8 x_11_30 + 82 x_11_31
   + 66 x_11_32 + 88 x_11_35 + 65 x_11_36 + 7 x_11_39 + 56 x_12_13
   + 50 x_12_15 + 70 x_12_21 + 26 x_12_26 + 82 x_12_27 + 56 x_12_33
   + 53 x_12_40 + 66 x_12_41 + 24 x_13_15 + 7 x_13_19 + 44 x_13_24
   + 45 x_13_29 + 84 x_13_34 + 76 x_13_37 + 40 x_13_38 + 91 x_13_42
   + 67 x_13_43 + 72 x_13_47 + 58 x_13_48 + 81 x_13_49 + 75 x_14_17
   + 55 x_14_28 + 55 x_14_29 + 44 x_14_33 + 58 x_14_34 + 79 x_15_17
   + 17 x_15_19 + 15 x_15_20 + 47 x_15_22 + 79 x_15_23 + 20 x_15_24
   + 85 x_15_25 + 21 x_15_31 + 62 x_15_32 + 47 x_15_33 + 23 x_15_35
   + 61 x_15_44 + 42 x_15_45 + 92 x_16_17 + 53 x_16_20 + 56 x_16_36
   + 24 x_16_39 + 86 x_16_41 + 66 x_16_43 + 100 x_16_45 + 72 x_16_46
   + 12 x_16_48 + 21 x_17_21 + 61 x_17_23 + 59 x_17_28 + 66 x_17_29
   + 70 x_17_30 + 99 x_17_31 + 17 x_17_32 + 32 x_17_33 + 85 x_17_35
   + 73 x_17_38 + 36 x_17_42 + 99 x_17_46 + 33 x_18_24 + 9 x_18_31
   + 86 x_18_42 + 46 x_18_45 + 85 x_19_23 + 60 x_19_26 + 61 x_19_27
   + 15 x_19_31 + 77 x_19_34 + 8 x_19_36 + 69 x_19_40 + 91 x_19_41
   + 55 x_19_45 + 16 x_19_46 + 65 x_19_47 + 77 x_20_21 + 94 x_20_25
   + 55 x_20_26 + 60 x_20_27 + 63 x_20_30 + 80 x_20_42 + 56 x_20_43
   + 71 x_20_44 + 71 x_20_49 + 70 x_21_23 + 41 x_21_25 + 10 x_21_34
   + 67 x_21_35 + 16 x_21_37 + 55 x_21_38 + 74 x_21_39 + 25 x_21_43
   + 60 x_21_45 + 41 x_22_26 + 30 x_22_30 + 72 x_22_32 + 70 x_22_35
   + 80 x_22_37 + 65 x_22_38 + 62 x_22_42 + 88 x_22_45 + 53 x_22_47
   + 14 x_22_48 + 50 x_22_49 + 70 x_23_24 + 43 x_23_25 + 21 x_23_30
   + 98 x_23_31 + 55 x_23_32 + 23 x_23_39 + 55 x_23_40 + 55 x_23_41
   + 39 x_23_47 + 38 x_23_48 + 18 x_23_49 + 32 x_24_29 + 60 x_24_30
   + 27 x_24_33 + 29 x_24_36 + 26 x_24_43 + 38 x_24_45 + 41 x_24_46
   + 56 x_24_48 + 83 x_25_27 + 56 x_25_28 + 107 x_25_31 + 46 x_25_33
   + 33 x_25_34 + 91 x_25_36 + 35 x_25_40 + 25 x_25_44 + 33 x_25_47
   + 71 x_25_48 + 28 x_26_30 + 37 x_26_34 + 23 x_26_43 + 26 x_26_44
   + 75 x_26_45 + 12 x_26_47 + 34 x_26_48 + 92 x_27_30 + 54 x_27_32
   + 54 x_27_36 + 29 x_27_37 + 66 x_27_41 + 59 x_27_44 + 60 x_27_47
   + 81 x_27_49 + 8 x_28_29 + 29 x_28_30 + 38 x_28_33 + 46 x_28_34
   + 52 x_28_37 + 28 x_28_39 + 54 x_28_41 + 48 x_29_5 + 52 x_29_31
   + 55 x_29_35 + 29 x_29_39 + 45 x_29_44 + 32 x_29_47 + 24 x_29_48
   + 85 x_30_35 + 56 x_30_40 + 51 x_30_44 + 98 x_30_45 + 39 x_30_47
   + 16 x_30_48 + 25 x_30_49 + 67 x_31_33 + 17 x_31_36 + 31 x_31_38
   + 75 x_31_40 + 95 x_31_42 + 83 x_31_44 + 46 x_31_45 + 26 x_32_37
   + 57 x_32_38 + 59 x_32_39 + 15 x_32_41 + 32 x_32_42 + 82 x_32_46
   + 15 x_33_34 + 15 x_33_37 + 10 x_33_43 + 51 x_33_45 + 45 x_33_49
   + 69 x_34_36 + 64 x_34_39 + 17 x_34_41 + 64 x_34_45 + 24 x_34_47
   + 42 x_34_49 + 72 x_35_44 + 22 x_35_45 + 66 x_35_47 + 61 x_36_37
   + 62 x_36_40 + 68 x_36_44 + 18 x_36_46 + 53 x_36_48 + 25 x_37_43
   + 76 x_38_39 + 77 x_38_42 + 43 x_38_43 + 71 x_38_48 + 65 x_39_41
   + 80 x_39_46 + 27 x_39_49 + 75 x_40_46 + 62 x_40_48 + 81 x_41_45
   + 97 x_41_46 + 74 x_41_48 + 39 x_41_49 + 36 x_42_43 + 17 x_43_44
   + 55 x_43_48 + 71 x_45_47 + 87 x_46_49 + 1012 Constant
Subject To
 c_0: y_28 = 1
 c_1_0: y_0 >= 1
 c_1_1: y_1 >= 1
 c_1_2: y_2 >= 1
 c_1_3: y_3 + y_23 >= 1
 c_1_4: y_4 >= 1
 c_1_5: y_5 >= 1
 c_1_6: y_6 + y_47 >= 1
 c_1_7: y_7 >= 1
 c_1_8: y_8 + y_24 >= 1
 c_1_9: y_9 >= 1
 c_1_10: y_10 + y_49 >= 1
 c_1_11: y_11 >= 1
 c_1_12: y_12 >= 1
 c_1_13: y_13 >= 1
 c_1_14: y_14 >= 1
 c_1_15: y_15 >= 1
 c_1_16: y_16 >= 1
 c_1_17: y_17 >= 1
 c_1_18: y_18 >= 1
 c_1_19: y_19 + y_20 >= 1
 c_1_20: y_19 + y_20 >= 1
 c_1_21: y_21 >= 1
 c_1_22: y_22 >= 1
 c_1_23: y_3 + y_23 >= 1
 c_1_24: y_8 + y_24 >= 1
 c_1_25: y_25 >= 1
 c_1_26: y_26 >= 1
 c_1_27: y_27 >= 1
 c_1_28: y_28 >= 1
 c_1_29: y_29 >= 1
 c_1_30: y_30 + y_39 >= 1
 c_1_31: y_31 + y_46 >= 1
 c_1_32: y_32 >= 1
 c_1_33: y_33 >= 1
 c_1_34: y_34 >= 1
 c_1_35: y_35 >= 1
 c_1_36: y_36 >= 1
 c_1_37: y_37 >= 1
 c_1_38: y_38 >= 1
 c_1_39: y_30 + y_39 >= 1
 c_1_40: y_40 >= 1
 c_1_41: y_41 >= 1
 c_1_42: y_42 >= 1
 c_1_43: y_43 >= 1
 c_1_44: y_44 >= 1
 c_1_45: y_45 >= 1
 c_1_46: y_31 + y_46 >= 1
 c_1_47: y_6 + y_47 >= 1
 c_1_48: y_48 >= 1
 c_1_49: y_10 + y_49 >= 1
 c_2_0: - 2 y_0 + x_0_3 + x_0_10 + x_0_11 + x_0_16 + x_0_26 + x_0_34
   + x_0_44 + x_0_45 + x_0_46 + x_0_49 = 0
 c_2_1: - 2 y_1 + x_1_5 + x_1_8 + x_1_11 + x_1_17 + x_1_18 + x_1_22
   + x_1_24 + x_1_25 + x_1_26 + x_1_27 + x_1_28 + x_1_29 + x_1_33 + x_1_36
   + x_1_37 + x_1_41 + x_1_42 + x_1_43 + x_1_44 + x_1_46 + x_1_49 = 0
 c_2_2: - 2 y_2 + x_2_4 + x_2_16 + x_2_17 + x_2_26 + x_2_30 + x_2_43
   + x_2_44 + x_2_49 = 0
 c_2_3: - 2 y_3 + x_0_3 + x_3_4 + x_3_5 + x_3_13 + x_3_19 + x_3_21 + x_3_25
   + x_3_36 + x_3_38 + x_3_45 + x_3_47 = 0
 c_2_4: - 2 y_4 + x_2_4 + x_3_4 + x_4_5 + x_4_8 + x_4_9 + x_4_12 + x_4_15
   + x_4_17 + x_4_22 + x_4_23 + x_4_24 + x_4_26 + x_4_31 + x_4_34 + x_4_36
   + x_4_42 + x_4_48 = 0
 c_2_5: - 2 y_5 + x_1_5 + x_3_5 + x_4_5 + x_5_7 + x_5_14 + x_5_15 + x_5_19
   + x_5_24 + x_5_25 + x_5_45 + x_5_46 + x_5_48 + x_29_5 = 0
 c_2_6: - 2 y_6 + x_6_12 + x_6_14 + x_6_18 + x_6_23 + x_6_33 + x_6_37
   + x_6_38 + x_6_41 + x_6_42 + x_6_49 = 0
 c_2_7: - 2 y_7 + x_5_7 + x_7_13 + x_7_14 + x_7_18 + x_7_22 + x_7_27
   + x_7_32 + x_7_37 + x_7_39 + x_7_46 + x_7_48 + x_7_49 = 0
 c_2_8: - 2 y_8 + x_1_8 + x_4_8 + x_8_10 + x_8_16 + x_8_18 + x_8_19
   + x_8_20 + x_8_26 + x_8_30 + x_8_32 + x_8_33 + x_8_36 + x_8_38 + x_8_39
   + x_8_41 + x_8_44 + x_8_47 = 0
 c_2_9: - 2 y_9 + x_4_9 + x_9_10 + x_9_13 + x_9_15 + x_9_16 + x_9_18
   + x_9_20 + x_9_30 + x_9_32 + x_9_35 + x_9_36 + x_9_38 + x_9_39 + x_9_44
   + x_9_45 + x_9_48 = 0
 c_2_10: - 2 y_10 + x_0_10 + x_8_10 + x_9_10 + x_10_11 + x_10_13 + x_10_17
   + x_10_19 + x_10_22 + x_10_23 + x_10_31 + x_10_32 + x_10_35 + x_10_36
   + x_10_37 + x_10_49 = 0
 c_2_11: - 2 y_11 + x_0_11 + x_1_11 + x_10_11 + x_11_12 + x_11_14 + x_11_15
   + x_11_19 + x_11_24 + x_11_25 + x_11_28 + x_11_30 + x_11_31 + x_11_32
   + x_11_35 + x_11_36 + x_11_39 = 0
 c_2_12: - 2 y_12 + x_4_12 + x_6_12 + x_11_12 + x_12_13 + x_12_15 + x_12_21
   + x_12_26 + x_12_27 + x_12_33 + x_12_40 + x_12_41 = 0
 c_2_13: - 2 y_13 + x_3_13 + x_7_13 + x_9_13 + x_10_13 + x_12_13 + x_13_15
   + x_13_19 + x_13_24 + x_13_29 + x_13_34 + x_13_37 + x_13_38 + x_13_42
   + x_13_43 + x_13_47 + x_13_48 + x_13_49 = 0
 c_2_14: - 2 y_14 + x_5_14 + x_6_14 + x_7_14 + x_11_14 + x_14_17 + x_14_28
   + x_14_29 + x_14_33 + x_14_34 = 0
 c_2_15: - 2 y_15 + x_4_15 + x_5_15 + x_9_15 + x_11_15 + x_12_15 + x_13_15
   + x_15_17 + x_15_19 + x_15_20 + x_15_22 + x_15_23 + x_15_24 + x_15_25
   + x_15_31 + x_15_32 + x_15_33 + x_15_35 + x_15_44 + x_15_45 = 0
 c_2_16: - 2 y_16 + x_0_16 + x_2_16 + x_8_16 + x_9_16 + x_16_17 + x_16_20
   + x_16_36 + x_16_39 + x_16_41 + x_16_43 + x_16_45 + x_16_46 + x_16_48
   = 0
 c_2_17: - 2 y_17 + x_1_17 + x_2_17 + x_4_17 + x_10_17 + x_14_17 + x_15_17
   + x_16_17 + x_17_21 + x_17_23 + x_17_28 + x_17_29 + x_17_30 + x_17_31
   + x_17_32 + x_17_33 + x_17_35 + x_17_38 + x_17_42 + x_17_46 = 0
 c_2_18: - 2 y_18 + x_1_18 + x_6_18 + x_7_18 + x_8_18 + x_9_18 + x_18_24
   + x_18_31 + x_18_42 + x_18_45 = 0
 c_2_19: - 2 y_19 + x_3_19 + x_5_19 + x_8_19 + x_10_19 + x_11_19 + x_13_19
   + x_15_19 + x_19_23 + x_19_26 + x_19_27 + x_19_31 + x_19_34 + x_19_36
   + x_19_40 + x_19_41 + x_19_45 + x_19_46 + x_19_47 = 0
 c_2_20: - 2 y_20 + x_8_20 + x_9_20 + x_15_20 + x_16_20 + x_20_21 + x_20_25
   + x_20_26 + x_20_27 + x_20_30 + x_20_42 + x_20_43 + x_20_44 + x_20_49
   = 0
 c_2_21: - 2 y_21 + x_3_21 + x_12_21 + x_17_21 + x_20_21 + x_21_23
   + x_21_25 + x_21_34 + x_21_35 + x_21_37 + x_21_38 + x_21_39 + x_21_43
   + x_21_45 = 0
 c_2_22: - 2 y_22 + x_1_22 + x_4_22 + x_7_22 + x_10_22 + x_15_22 + x_22_26
   + x_22_30 + x_22_32 + x_22_35 + x_22_37 + x_22_38 + x_22_42 + x_22_45
   + x_22_47 + x_22_48 + x_22_49 = 0
 c_2_23: - 2 y_23 + x_4_23 + x_6_23 + x_10_23 + x_15_23 + x_17_23 + x_19_23
   + x_21_23 + x_23_24 + x_23_25 + x_23_30 + x_23_31 + x_23_32 + x_23_39
   + x_23_40 + x_23_41 + x_23_47 + x_23_48 + x_23_49 = 0
 c_2_24: - 2 y_24 + x_1_24 + x_4_24 + x_5_24 + x_11_24 + x_13_24 + x_15_24
   + x_18_24 + x_23_24 + x_24_29 + x_24_30 + x_24_33 + x_24_36 + x_24_43
   + x_24_45 + x_24_46 + x_24_48 = 0
 c_2_25: - 2 y_25 + x_1_25 + x_3_25 + x_5_25 + x_11_25 + x_15_25 + x_20_25
   + x_21_25 + x_23_25 + x_25_27 + x_25_28 + x_25_31 + x_25_33 + x_25_34
   + x_25_36 + x_25_40 + x_25_44 + x_25_47 + x_25_48 = 0
 c_2_26: - 2 y_26 + x_0_26 + x_1_26 + x_2_26 + x_4_26 + x_8_26 + x_12_26
   + x_19_26 + x_20_26 + x_22_26 + x_26_30 + x_26_34 + x_26_43 + x_26_44
   + x_26_45 + x_26_47 + x_26_48 = 0
 c_2_27: - 2 y_27 + x_1_27 + x_7_27 + x_12_27 + x_19_27 + x_20_27 + x_25_27
   + x_27_30 + x_27_32 + x_27_36 + x_27_37 + x_27_41 + x_27_44 + x_27_47
   + x_27_49 = 0
 c_2_28: - 2 y_28 + x_1_28 + x_11_28 + x_14_28 + x_17_28 + x_25_28
   + x_28_29 + x_28_30 + x_28_33 + x_28_34 + x_28_37 + x_28_39 + x_28_41
   = 0
 c_2_29: - 2 y_29 + x_1_29 + x_13_29 + x_14_29 + x_17_29 + x_24_29
   + x_28_29 + x_29_5 + x_29_31 + x_29_35 + x_29_39 + x_29_44 + x_29_47
   + x_29_48 = 0
 c_2_30: - 2 y_30 + x_2_30 + x_8_30 + x_9_30 + x_11_30 + x_17_30 + x_20_30
   + x_22_30 + x_23_30 + x_24_30 + x_26_30 + x_27_30 + x_28_30 + x_30_35
   + x_30_40 + x_30_44 + x_30_45 + x_30_47 + x_30_48 + x_30_49 = 0
 c_2_31: - 2 y_31 + x_4_31 + x_10_31 + x_11_31 + x_15_31 + x_17_31
   + x_18_31 + x_19_31 + x_23_31 + x_25_31 + x_29_31 + x_31_33 + x_31_36
   + x_31_38 + x_31_40 + x_31_42 + x_31_44 + x_31_45 = 0
 c_2_32: - 2 y_32 + x_7_32 + x_8_32 + x_9_32 + x_10_32 + x_11_32 + x_15_32
   + x_17_32 + x_22_32 + x_23_32 + x_27_32 + x_32_37 + x_32_38 + x_32_39
   + x_32_41 + x_32_42 + x_32_46 = 0
 c_2_33: - 2 y_33 + x_1_33 + x_6_33 + x_8_33 + x_12_33 + x_14_33 + x_15_33
   + x_17_33 + x_24_33 + x_25_33 + x_28_33 + x_31_33 + x_33_34 + x_33_37
   + x_33_43 + x_33_45 + x_33_49 = 0
 c_2_34: - 2 y_34 + x_0_34 + x_4_34 + x_13_34 + x_14_34 + x_19_34 + x_21_34
   + x_25_34 + x_26_34 + x_28_34 + x_33_34 + x_34_36 + x_34_39 + x_34_41
   + x_34_45 + x_34_47 + x_34_49 = 0
 c_2_35: - 2 y_35 + x_9_35 + x_10_35 + x_11_35 + x_15_35 + x_17_35
   + x_21_35 + x_22_35 + x_29_35 + x_30_35 + x_35_44 + x_35_45 + x_35_47
   = 0
 c_2_36: - 2 y_36 + x_1_36 + x_3_36 + x_4_36 + x_8_36 + x_9_36 + x_10_36
   + x_11_36 + x_16_36 + x_19_36 + x_24_36 + x_25_36 + x_27_36 + x_31_36
   + x_34_36 + x_36_37 + x_36_40 + x_36_44 + x_36_46 + x_36_48 = 0
 c_2_37: - 2 y_37 + x_1_37 + x_6_37 + x_7_37 + x_10_37 + x_13_37 + x_21_37
   + x_22_37 + x_27_37 + x_28_37 + x_32_37 + x_33_37 + x_36_37 + x_37_43
   = 0
 c_2_38: - 2 y_38 + x_3_38 + x_6_38 + x_8_38 + x_9_38 + x_13_38 + x_17_38
   + x_21_38 + x_22_38 + x_31_38 + x_32_38 + x_38_39 + x_38_42 + x_38_43
   + x_38_48 = 0
 c_2_39: - 2 y_39 + x_7_39 + x_8_39 + x_9_39 + x_11_39 + x_16_39 + x_21_39
   + x_23_39 + x_28_39 + x_29_39 + x_32_39 + x_34_39 + x_38_39 + x_39_41
   + x_39_46 + x_39_49 = 0
 c_2_40: - 2 y_40 + x_12_40 + x_19_40 + x_23_40 + x_25_40 + x_30_40
   + x_31_40 + x_36_40 + x_40_46 + x_40_48 = 0
 c_2_41: - 2 y_41 + x_1_41 + x_6_41 + x_8_41 + x_12_41 + x_16_41 + x_19_41
   + x_23_41 + x_27_41 + x_28_41 + x_32_41 + x_34_41 + x_39_41 + x_41_45
   + x_41_46 + x_41_48 + x_41_49 = 0
 c_2_42: - 2 y_42 + x_1_42 + x_4_42 + x_6_42 + x_13_42 + x_17_42 + x_18_42
   + x_20_42 + x_22_42 + x_31_42 + x_32_42 + x_38_42 + x_42_43 = 0
 c_2_43: - 2 y_43 + x_1_43 + x_2_43 + x_13_43 + x_16_43 + x_20_43 + x_21_43
   + x_24_43 + x_26_43 + x_33_43 + x_37_43 + x_38_43 + x_42_43 + x_43_44
   + x_43_48 = 0
 c_2_44: - 2 y_44 + x_0_44 + x_1_44 + x_2_44 + x_8_44 + x_9_44 + x_15_44
   + x_20_44 + x_25_44 + x_26_44 + x_27_44 + x_29_44 + x_30_44 + x_31_44
   + x_35_44 + x_36_44 + x_43_44 = 0
 c_2_45: - 2 y_45 + x_0_45 + x_3_45 + x_5_45 + x_9_45 + x_15_45 + x_16_45
   + x_18_45 + x_19_45 + x_21_45 + x_22_45 + x_24_45 + x_26_45 + x_30_45
   + x_31_45 + x_33_45 + x_34_45 + x_35_45 + x_41_45 + x_45_47 = 0
 c_2_46: - 2 y_46 + x_0_46 + x_1_46 + x_5_46 + x_7_46 + x_16_46 + x_17_46
   + x_19_46 + x_24_46 + x_32_46 + x_36_46 + x_39_46 + x_40_46 + x_41_46
   + x_46_49 = 0
 c_2_47: - 2 y_47 + x_3_47 + x_8_47 + x_13_47 + x_19_47 + x_22_47 + x_23_47
   + x_25_47 + x_26_47 + x_27_47 + x_29_47 + x_30_47 + x_34_47 + x_35_47
   + x_45_47 = 0
 c_2_48: - 2 y_48 + x_4_48 + x_5_48 + x_7_48 + x_9_48 + x_13_48 + x_16_48
   + x_22_48 + x_23_48 + x_24_48 + x_25_48 + x_26_48 + x_29_48 + x_30_48
   + x_36_48 + x_38_48 + x_40_48 + x_41_48 + x_43_48 = 0
 c_2_49: - 2 y_49 + x_0_49 + x_1_49 + x_2_49 + x_6_49 + x_7_49 + x_10_49
   + x_13_49 + x_20_49 + x_22_49 + x_23_49 + x_27_49 + x_30_49 + x_33_49
   + x_34_49 + x_39_49 + x_41_49 + x_46_49 = 0
Bounds
 Constant = 1
Binaries
 y_0 y_1 y_2 y_3 y_4 y_5 y_6 y_7 y_8 y_9 y_10 y_11 y_12 y_13 y_14 y_15 y_16
 y_17 y_18 y_19 y_20 y_21 y_22 y_23 y_24 y_25 y_26 y_27 y_28 y_29 y_30 y_31
 y_32 y_33 y_34 y_35 y_36 y_37 y_38 y_39 y_40 y_41 y_42 y_43 y_44 y_45 y_46
 y_47 y_48 y_49 x_0_3 x_0_10 x_0_11 x_0_16 x_0_26 x_0_34 x_0_44 x_0_45
 x_0_46 x_0_49 x_1_5 x_1_8 x_1_11 x_1_17 x_1_18 x_1_22 x_1_24 x_1_25 x_1_26
 x_1_27 x_1_28 x_1_29 x_1_33 x_1_36 x_1_37 x_1_41 x_1_42 x_1_43 x_1_44
 x_1_46 x_1_49 x_2_4 x_2_16 x_2_17 x_2_26 x_2_30 x_2_43 x_2_44 x_2_49 x_3_4
 x_3_5 x_3_13 x_3_19 x_3_21 x_3_25 x_3_36 x_3_38 x_3_45 x_3_47 x_4_5 x_4_8
 x_4_9 x_4_12 x_4_15 x_4_17 x_4_22 x_4_23 x_4_24 x_4_26 x_4_31 x_4_34
 x_4_36 x_4_42 x_4_48 x_5_7 x_5_14 x_5_15 x_5_19 x_5_24 x_5_25 x_5_45
 x_5_46 x_5_48 x_6_12 x_6_14 x_6_18 x_6_23 x_6_33 x_6_37 x_6_38 x_6_41
 x_6_42 x_6_49 x_7_13 x_7_14 x_7_18 x_7_22 x_7_27 x_7_32 x_7_37 x_7_39
 x_7_46 x_7_48 x_7_49 x_8_10 x_8_16 x_8_18 x_8_19 x_8_20 x_8_26 x_8_30
 x_8_32 x_8_33 x_8_36 x_8_38 x_8_39 x_8_41 x_8_44 x_8_47 x_9_10 x_9_13
 x_9_15 x_9_16 x_9_18 x_9_20 x_9_30 x_9_32 x_9_35 x_9_36 x_9_38 x_9_39
 x_9_44 x_9_45 x_9_48 x_10_11 x_10_13 x_10_17 x_10_19 x_10_22 x_10_23
 x_10_31 x_10_32 x_10_35 x_10_36 x_10_37 x_10_49 x_11_12 x_11_14 x_11_15
 x_11_19 x_11_24 x_11_25 x_11_28 x_11_30 x_11_31 x_11_32 x_11_35 x_11_36
 x_11_39 x_12_13 x_12_15 x_12_21 x_12_26 x_12_27 x_12_33 x_12_40 x_12_41
 x_13_15 x_13_19 x_13_24 x_13_29 x_13_34 x_13_37 x_13_38 x_13_42 x_13_43
 x_13_47 x_13_48 x_13_49 x_14_17 x_14_28 x_14_29 x_14_33 x_14_34 x_15_17
 x_15_19 x_15_20 x_15_22 x_15_23 x_15_24 x_15_25 x_15_31 x_15_32 x_15_33
 x_15_35 x_15_44 x_15_45 x_16_17 x_16_20 x_16_36 x_16_39 x_16_41 x_16_43
 x_16_45 x_16_46 x_16_48 x_17_21 x_17_23 x_17_28 x_17_29 x_17_30 x_17_31
 x_17_32 x_17_33 x_17_35 x_17_38 x_17_42 x_17_46 x_18_24 x_18_31 x_18_42
 x_18_45 x_19_23 x_19_26 x_19_27 x_19_31 x_19_34 x_19_36 x_19_40 x_19_41
 x_19_45 x_19_46 x_19_47 x_20_21 x_20_25 x_20_26 x_20_27 x_20_30 x_20_42
 x_20_43 x_20_44 x_20_49 x_21_23 x_21_25 x_21_34 x_21_35 x_21_37 x_21_38
 x_21_39 x_21_43 x_21_45 x_22_26 x_22_30 x_22_32 x_22_35 x_22_37 x_22_38
 x_22_42 x_22_45 x_22_47 x_22_48 x_22_49 x_23_24 x_23_25 x_23_30 x_23_31
 x_23_32 x_23_39 x_23_40 x_23_41 x_23_47 x_23_48 x_23_49 x_24_29 x_24_30
 x_24_33 x_24_36 x_24_43 x_24_45 x_24_46 x_24_48 x_25_27 x_25_28 x_25_31
 x_25_33 x_25_34 x_25_36 x_25_40 x_25_44 x_25_47 x_25_48 x_26_30 x_26_34
 x_26_43 x_26_44 x_26_45 x_26_47 x_26_48 x_27_30 x_27_32 x_27_36 x_27_37
 x_27_41 x_27_44 x_27_47 x_27_49 x_28_29 x_28_30 x_28_33 x_28_34 x_28_37
 x_28_39 x_28_41 x_29_5 x_29_31 x_29_35 x_29_39 x_29_44 x_29_47 x_29_48
 x_30_35 x_30_40 x_30_44 x_30_45 x_30_47 x_30_48 x_30_49 x_31_33 x_31_36
 x_31_38 x_31_40 x_31_42 x_31_44 x_31_45 x_32_37 x_32_38 x_32_39 x_32_41
 x_32_42 x_32_46 x_33_34 x_33_37 x_33_43 x_33_45 x_33_49 x_34_36 x_34_39
 x_34_41 x_34_45 x_34_47 x_34_49 x_35_44 x_35_45 x_35_47 x_36_37 x_36_40
 x_36_44 x_36_46 x_36_48 x_37_43 x_38_39 x_38_42 x_38_43 x_38_48 x_39_41
 x_39_46 x_39_49 x_40_46 x_40_48 x_41_45 x_41_46 x_41_48 x_41_49 x_42_43
 x_43_44 x_43_48 x_45_47 x_46_49
End
